param W_CLASS:=
1 0.006041655330785697
2 0.06709264548246914
3 0
4 0
5 0
6 0
7 -0.0032169218659120263
8 0.18939855291419094
9 0
10 0
11 0
12 0
13 0
14 0.024083520755137366
15 0
16 -0.2594859564438967
17 0
18 0
19 -0.4780729221602754 ;
param B_CLASS:= 16.72809289768172 ;